(declare-sort $$unsorted 0)
(declare-fun tptp.op ($$unsorted $$unsorted) $$unsorted)
(assert (forall ((X0 $$unsorted) (X1 $$unsorted)) (= X0 (tptp.op X1 (tptp.op (tptp.op X0 X1) X1)))))
(assert (not (forall ((X0 $$unsorted) (X1 $$unsorted)) (= X0 (tptp.op X0 (tptp.op X0 (tptp.op X0 X0)))))))
(set-info :filename Equation118_implies_Equation47)
(check-sat-assuming ( true ))
